
Starting CP-SAT solver v9.15.6755
Parameters: random_seed: 2026073182 max_time_in_seconds: 6938.998814164 log_search_progress: true cp_model_presolve: true linearization_level: 2 num_search_workers: 4 cp_model_probing_level: 2 symmetry_level: 2

Initial satisfaction model '': (model_fingerprint: 0xba421eb8d3139f64)
#Variables: 724 (604 primary variables)
  - 724 Booleans in [0,1]
#kBoolAnd: 110 (#enforced: 110) (#literals: 330)
#kBoolOr: 110 (#enforced: 110) (#literals: 220)
#kExactlyOne: 87 (#literals: 261)
#kLinear1: 36 (#enforced: 6)
#kLinear2: 336 (#enforced: 336) (#complex_domain: 110)
#kLinear3: 1'600 (#enforced: 6)
#kLinearN: 1'132 (#enforced: 243) (#terms: 9'111)

Starting presolve at 0.00s
  7.03e-04s  0.00e+00d  [DetectDominanceRelations] 
  8.86e-03s  0.00e+00d  [PresolveToFixPoint] #num_loops=3 #num_dual_strengthening=1 
  4.92e-05s  0.00e+00d  [ExtractEncodingFromLinear] #potential_supersets=95 
  2.87e-04s  0.00e+00d  [DetectDuplicateColumns] 
  1.05e-04s  0.00e+00d  [DetectDuplicateConstraints] #duplicates=9 
[Symmetry] Graph for symmetry has 4'853 nodes and 15'606 arcs.
[Symmetry] Symmetry computation done. time: 0.00131319 dtime: 0.00182127
[SAT presolve] num removable Booleans: 220 / 620
[SAT presolve] num trivial clauses: 0
[SAT presolve] [0s] clauses:2'700 literals:7'350 vars:505 one_side_vars:65 simple_definition:1 singleton_clauses:0
[SAT presolve] [0.000233036s] clauses:2'699 literals:7'343 vars:505 one_side_vars:65 simple_definition:1 singleton_clauses:0
[SAT presolve] [0.000576656s] clauses:2'467 literals:7'012 vars:393 one_side_vars:65 simple_definition:2 singleton_clauses:0
  1.26e-04s  0.00e+00d  [DetectDuplicateConstraintsWithDifferentEnforcements] #without_enforcements=4 
  6.08e-03s  3.16e-03d  [Probe] #probed=1'280 #fixed_bools=15 #equiv=9 #new_binary_clauses=1'111 
  7.41e-04s  5.40e-04d  [MaxClique] Merged 687 constraints with 1'510 literals into 623 constraints with 1'403 literals
  9.59e-04s  0.00e+00d  [DetectDominanceRelations] 
  3.52e-03s  0.00e+00d  [PresolveToFixPoint] #num_loops=2 #num_dual_strengthening=2 
  1.24e-03s  0.00e+00d  [ProcessAtMostOneAndLinear] 
  1.07e-04s  0.00e+00d  [DetectDuplicateConstraints] #duplicates=5 
  8.78e-05s  0.00e+00d  [DetectDuplicateConstraintsWithDifferentEnforcements] 
  3.46e-03s  1.01e-04d  [DetectDominatedLinearConstraints] #relevant_constraints=828 #num_inclusions=497 #num_redundant=7 
  1.28e-04s  0.00e+00d  [DetectDifferentVariables] 
  8.60e-04s  9.01e-05d  [ProcessSetPPC] #relevant_constraints=3'185 #num_inclusions=290 
  3.10e-04s  3.50e-05d  [TransformClausesToExactlyOne] #num_amos=623 #num_clauses=1'764 #num_transformed=5 #num_checked=1'764 
  5.22e-05s  0.00e+00d  [DetectEncodedComplexDomains] 
  3.08e-05s  1.80e-07d  [FindAlmostIdenticalLinearConstraints] #num_tested_pairs=2 
  9.97e-04s  1.37e-03d  [FindBigAtMostOneAndLinearOverlap] 
  1.48e-03s  1.16e-03d  [FindBigVerticalLinearOverlap] #blocks=2 #saved_nz=62 
  4.02e-04s  6.61e-04d  [FindBigHorizontalLinearOverlap] #linears=461 
  3.54e-04s  2.75e-05d  [MergeClauses] #num_collisions=9 #num_merges=9 #num_saved_literals=18 
  9.70e-04s  0.00e+00d  [DetectDominanceRelations] 
  3.21e-03s  0.00e+00d  [PresolveToFixPoint] #num_loops=2 #num_dual_strengthening=1 
  9.48e-04s  0.00e+00d  [DetectDominanceRelations] 
  3.15e-03s  0.00e+00d  [PresolveToFixPoint] #num_loops=1 #num_dual_strengthening=1 
  2.16e-04s  0.00e+00d  [DetectDuplicateColumns] 
  9.69e-05s  0.00e+00d  [DetectDuplicateConstraints] 
[Symmetry] Graph for symmetry has 4'501 nodes and 14'047 arcs.
[Symmetry] Symmetry computation done. time: 0.0010465 dtime: 0.00145069
[SAT presolve] num removable Booleans: 98 / 483
[SAT presolve] num trivial clauses: 0
[SAT presolve] [0s] clauses:2'330 literals:6'648 vars:456 one_side_vars:155 simple_definition:11 singleton_clauses:0
[SAT presolve] [0.000241268s] clauses:2'330 literals:6'511 vars:456 one_side_vars:156 simple_definition:77 singleton_clauses:0
[SAT presolve] [0.000392743s] clauses:2'128 literals:6'030 vars:451 one_side_vars:201 simple_definition:55 singleton_clauses:0
  1.50e-04s  0.00e+00d  [DetectDuplicateConstraintsWithDifferentEnforcements] #without_enforcements=1 
  5.58e-03s  1.90e-03d  [Probe] #probed=1'266 #new_binary_clauses=671 
  4.41e-04s  3.02e-04d  [MaxClique] Merged 512 constraints with 1'117 literals into 494 constraints with 1'104 literals
  9.14e-04s  0.00e+00d  [DetectDominanceRelations] 
  3.09e-03s  0.00e+00d  [PresolveToFixPoint] #num_loops=1 #num_dual_strengthening=1 
  1.15e-03s  0.00e+00d  [ProcessAtMostOneAndLinear] 
  9.67e-05s  0.00e+00d  [DetectDuplicateConstraints] 
  8.89e-05s  0.00e+00d  [DetectDuplicateConstraintsWithDifferentEnforcements] 
  2.52e-03s  8.17e-05d  [DetectDominatedLinearConstraints] #relevant_constraints=823 #num_inclusions=426 
  1.28e-04s  0.00e+00d  [DetectDifferentVariables] 
  7.77e-04s  7.50e-05d  [ProcessSetPPC] #relevant_constraints=3'031 #num_inclusions=102 
  3.12e-04s  3.16e-05d  [TransformClausesToExactlyOne] #num_amos=490 #num_clauses=1'664 #num_checked=1'664 
  4.55e-05s  0.00e+00d  [DetectEncodedComplexDomains] 
  3.63e-05s  9.00e-08d  [FindAlmostIdenticalLinearConstraints] #num_tested_pairs=1 
  9.42e-04s  1.26e-03d  [FindBigAtMostOneAndLinearOverlap] 
  1.45e-03s  1.13e-03d  [FindBigVerticalLinearOverlap] 
  3.92e-04s  6.61e-04d  [FindBigHorizontalLinearOverlap] #linears=461 
  3.49e-04s  2.55e-05d  [MergeClauses] #num_collisions=68 #num_merges=68 #num_saved_literals=168 
  9.09e-04s  0.00e+00d  [DetectDominanceRelations] 
  3.10e-03s  0.00e+00d  [PresolveToFixPoint] #num_loops=1 #num_dual_strengthening=1 
  8.95e-04s  0.00e+00d  [DetectDominanceRelations] 
  3.05e-03s  0.00e+00d  [PresolveToFixPoint] #num_loops=1 #num_dual_strengthening=1 
  2.10e-04s  0.00e+00d  [DetectDuplicateColumns] 
  8.98e-05s  0.00e+00d  [DetectDuplicateConstraints] 
[Symmetry] Graph for symmetry has 4'245 nodes and 13'120 arcs.
[Symmetry] Symmetry computation done. time: 0.00101268 dtime: 0.0013665
[SAT presolve] num removable Booleans: 93 / 478
[SAT presolve] num trivial clauses: 0
[SAT presolve] [0s] clauses:2'101 literals:5'971 vars:451 one_side_vars:201 simple_definition:55 singleton_clauses:0
[SAT presolve] [0.000212225s] clauses:2'101 literals:5'971 vars:451 one_side_vars:201 simple_definition:55 singleton_clauses:0
[SAT presolve] [0.000277832s] clauses:2'101 literals:5'971 vars:451 one_side_vars:201 simple_definition:55 singleton_clauses:0
  1.26e-04s  0.00e+00d  [DetectDuplicateConstraintsWithDifferentEnforcements] 
  5.50e-03s  1.90e-03d  [Probe] #probed=1'266 #new_binary_clauses=670 
  4.29e-04s  2.91e-04d  [MaxClique] Merged 488 constraints with 1'075 literals into 487 constraints with 1'074 literals
  9.28e-04s  0.00e+00d  [DetectDominanceRelations] 
  3.12e-03s  0.00e+00d  [PresolveToFixPoint] #num_loops=1 #num_dual_strengthening=1 
  1.14e-03s  0.00e+00d  [ProcessAtMostOneAndLinear] 
  1.04e-04s  0.00e+00d  [DetectDuplicateConstraints] 
  9.29e-05s  0.00e+00d  [DetectDuplicateConstraintsWithDifferentEnforcements] 
  2.52e-03s  8.17e-05d  [DetectDominatedLinearConstraints] #relevant_constraints=823 #num_inclusions=426 
  1.35e-04s  0.00e+00d  [DetectDifferentVariables] 
  7.68e-04s  7.48e-05d  [ProcessSetPPC] #relevant_constraints=3'026 #num_inclusions=95 
  2.86e-04s  3.17e-05d  [TransformClausesToExactlyOne] #num_amos=487 #num_clauses=1'666 #num_checked=1'666 
  6.22e-05s  0.00e+00d  [DetectEncodedComplexDomains] 
  3.96e-05s  0.00e+00d  [FindAlmostIdenticalLinearConstraints] 
  9.45e-04s  1.26e-03d  [FindBigAtMostOneAndLinearOverlap] 
  1.44e-03s  1.09e-03d  [FindBigVerticalLinearOverlap] #blocks=2 #saved_nz=74 
  3.77e-04s  5.96e-04d  [FindBigHorizontalLinearOverlap] #linears=457 
  3.48e-04s  2.55e-05d  [MergeClauses] #num_collisions=69 #num_merges=69 #num_saved_literals=170 
  9.27e-04s  0.00e+00d  [DetectDominanceRelations] 
  3.17e-03s  0.00e+00d  [PresolveToFixPoint] #num_loops=2 #num_dual_strengthening=1 
  2.17e-05s  0.00e+00d  [MergeNoOverlap] 
  2.08e-05s  0.00e+00d  [MergeNoOverlap2D] 

Presolve summary:
  - 36 affine relations were detected.
  - rule 'TODO dual: only one blocking constraint?' was applied 925 times.
  - rule 'TODO linear inclusion: superset is equality' was applied 396 times.
  - rule 'affine: new relation' was applied 36 times.
  - rule 'at_most_one: removed literals' was applied 73 times.
  - rule 'at_most_one: satisfied' was applied 2 times.
  - rule 'at_most_one: size one' was applied 72 times.
  - rule 'at_most_one: transformed into max clique' was applied 3 times.
  - rule 'bool_or: always true' was applied 15 times.
  - rule 'bool_or: implications' was applied 75 times.
  - rule 'bool_or: only one literal' was applied 12 times.
  - rule 'bool_or: removed enforcement literal' was applied 557 times.
  - rule 'clauses: transformed into exactly one' was applied 5 times.
  - rule 'deductions: 776 stored' was applied 1 time.
  - rule 'dual: fix variable' was applied 1 time.
  - rule 'duplicate: merged rhs of linear constraint' was applied 13 times.
  - rule 'duplicate: removed constraint' was applied 14 times.
  - rule 'duplicate: removed enforced constraint' was applied 5 times.
  - rule 'enforcement: false literal' was applied 38 times.
  - rule 'enforcement: true literal' was applied 12 times.
  - rule 'exactly_one: removed literals' was applied 29 times.
  - rule 'exactly_one: satisfied' was applied 7 times.
  - rule 'exactly_one: singleton' was applied 2 times.
  - rule 'exactly_one: size two' was applied 27 times.
  - rule 'exactly_one: x and not(x)' was applied 6 times.
  - rule 'incompatible linear: add implication' was applied 123 times.
  - rule 'linear + amo: empty after processing' was applied 5 times.
  - rule 'linear + amo: extracted enforcement literal' was applied 46 times.
  - rule 'linear + amo: trivial linear constraint' was applied 1 time.
  - rule 'linear inclusion: redundant containing constraint' was applied 3 times.
  - rule 'linear inclusion: redundant included constraint' was applied 3 times.
  - rule 'linear inclusion: sparsify superset' was applied 1 time.
  - rule 'linear matrix: common vertical rectangle' was applied 4 times.
  - rule 'linear1: x in domain' was applied 30 times.
  - rule 'linear2: convert ax + by != cte to clauses' was applied 248 times.
  - rule 'linear2: convert implied ax + by == cte to clauses' was applied 114 times.
  - rule 'linear2: implied ax + by = cte has only one solution' was applied 9 times.
  - rule 'linear: always true' was applied 425 times.
  - rule 'linear: coefficient strengthening by increasing it' was applied 2 times.
  - rule 'linear: empty' was applied 1 time.
  - rule 'linear: extracted at most one (max)' was applied 1 time.
  - rule 'linear: fixed or dup variables' was applied 879 times.
  - rule 'linear: negative clause' was applied 1'283 times.
  - rule 'linear: negative reified and' was applied 74 times.
  - rule 'linear: never in domain' was applied 5 times.
  - rule 'linear: positive at most one' was applied 44 times.
  - rule 'linear: positive equal one' was applied 1 time.
  - rule 'linear: reduced variable domains' was applied 5 times.
  - rule 'linear: remapped using affine relations' was applied 22 times.
  - rule 'presolve: 91 unused variables removed.' was applied 1 time.
  - rule 'presolve: iteration' was applied 3 times.
  - rule 'probing: bool_or reduced to implication' was applied 53 times.
  - rule 'probing: simplified clauses' was applied 6 times.
  - rule 'setppc: bool_or in at_most_one' was applied 12 times.
  - rule 'setppc: exactly_one included in linear' was applied 1 time.
  - rule 'setppc: reduced linear coefficients' was applied 1 time.
  - rule 'setppc: removed dominated constraints' was applied 85 times.

Presolved satisfaction model '': (model_fingerprint: 0x5bc04e202eda1e9c)
#Variables: 482 (412 primary variables)
  - 478 Booleans in [0,1]
  - 4 in [0,2]
#kAtMostOne: 54 (#literals: 208)
#kBoolAnd: 258 (#enforced: 258) (#literals: 691)
#kBoolAndClauses: 69 (#enforced: 69 #multi: 69) (#literals: 308)
#kBoolOr: 1'528 (#literals: 4'623)
#kExactlyOne: 56 (#literals: 213)
#kLinear3: 12 (#enforced: 8)
#kLinearN: 813 (#enforced: 118) (#terms: 5'674)
[Symmetry] Graph for symmetry has 4'003 nodes and 13'043 arcs.
[Symmetry] Symmetry computation done. time: 0.000844063 dtime: 0.00134963

Preloading model.
#Model   0.10s var:482/482 constraints:2790/2790

Starting search at 0.10s with 4 workers.
3 full problem subsolvers: [default_lp, max_lp, no_lp]
1 first solution subsolver: [fj]
2 interleaved subsolvers: [feasibility_pump, rins/rens]
2 helper subsolvers: [neighborhood_helper, synchronization_agent]

#Model  53.21s var:481/482 constraints:2775/2790
#Model  56.73s var:480/482 constraints:2759/2790
#Model 112.70s var:479/482 constraints:2757/2790
#Model 4713.15s var:478/482 constraints:2740/2790
#Model 4728.07s var:477/482 constraints:2727/2790
#Model 5385.62s var:476/482 constraints:2709/2790
#Model 5386.28s var:475/482 constraints:2691/2790
#Model 5404.12s var:474/482 constraints:2671/2790
#Model 5428.15s var:473/482 constraints:2652/2790
#Model 5445.22s var:472/482 constraints:2628/2790
#Model 5457.47s var:462/482 constraints:2510/2790
#Model 5457.63s var:461/482 constraints:2495/2790
#Model 5464.87s var:460/482 constraints:2475/2790
#Model 5468.81s var:459/482 constraints:2456/2790
#Model 5471.07s var:446/482 constraints:2318/2790
#Model 5471.09s var:445/482 constraints:2299/2790
#Model 5471.21s var:429/482 constraints:2132/2790
#Model 5471.24s var:427/482 constraints:2109/2790
#Model 5471.25s var:381/482 constraints:1750/2790
#Done  5471.25s no_lp

Task timing                   n [     min,      max]      avg      dev     time         n [     min,      max]      avg      dev    dtime
        'default_lp':         1 [   1.52h,    1.52h]    1.52h   0.00ns    1.52h         2 [  2.05ms,    1.50h]   44.90m   44.90m    1.50h
  'feasibility_pump':     27109 [759.45us, 127.03ms]   1.70ms 856.36us   46.08s     27108 [285.04us, 106.93ms] 291.47us 647.68us    7.90s
                'fj':     20200 [103.06ms, 185.26ms] 134.20ms   9.07ms   45.18m     20200 [100.00ms, 100.14ms] 100.02ms  14.14us   33.67m
            'max_lp':         1 [   1.52h,    1.52h]    1.52h   0.00ns    1.52h         2 [ 74.47ms,    1.92h]   57.53m   57.53m    1.92h
             'no_lp':         1 [   1.52h,    1.52h]    1.52h   0.00ns    1.52h         2 [  1.73ms,    3.19h]    1.60h    1.60h    3.19h
         'rins/rens':     25585 [726.71us, 186.27ms] 105.95ms  41.07ms   45.18m     25558 [ 53.96us, 100.36ms]  67.26ms  37.96ms   28.65m

Search stats     Bools   Conflicts    Branches  Restarts  BacktrackToRoot   Backtrack     BoolPropag  IntegerPropag
  'default_lp':    478     515'103  12'530'912     2'434        1'851'807   2'827'847    126'443'854    153'972'200
      'max_lp':    478     271'307  15'320'042     1'332        2'248'096   3'045'765    151'529'933    190'246'473
       'no_lp':    478  40'195'049  51'486'130   125'953          808'367  40'646'690  3'320'882'313    867'266'209

SAT formula      Fixed  Equiv  Total  VarLeft  BinaryClauses  PermanentClauses  TemporaryClauses
  'default_lp':      9      3    478      466          2'582            51'837             5'767
      'max_lp':      9      3    478      466          2'580            50'996             5'875
       'no_lp':    199      5    478      274          3'124            53'564             1'690

SAT stats        ClassicMinim   LitRemoved  LitRemovedBinary   LitLearned  LitForgotten    Subsumed
  'default_lp':       451'626    5'929'367         2'693'095   15'323'705    10'234'115     190'106
      'max_lp':       236'839    3'175'284         1'398'543    6'834'746     4'157'371      88'750
       'no_lp':    36'602'890  653'525'138       195'840'132  934'930'939   723'067'489  11'996'469

Vivification       Clauses   Decisions  LitTrue  Subsumed  LitRemoved  DecisionReused  Conflicts
  'default_lp':  1'842'023  11'429'968        4    32'078     333'975         515'974      3'003
      'max_lp':  2'164'959  14'374'278        0    34'650     359'735         558'765      3'092
       'no_lp':    541'583   4'696'879        0    34'303     457'427         120'997      1'957

Clause deletion    at_true  l_and_not(l)  to_binary  sub_conflict  sub_extra  sub_decisions  sub_eager  sub_vivify  sub_probing  sub_inpro  blocked  eliminated   forgotten    promoted   conflicts
    'default_lp':   12'382             0         12       187'096      1'262          7'047      3'010      32'078       11'044     36'545        0           0     279'840   1'014'046     515'103
        'max_lp':   11'015             0         12        87'631        640          2'617      1'119      34'650       14'799     32'587        0           0     142'043     554'661     271'307
         'no_lp':  127'252             1        171    11'779'985     67'244        520'973    216'484      34'303       39'572    241'463        0           0  27'119'816  89'803'877  40'195'049

Lp stats         Component  Iterations  AddedCuts  OPTIMAL  DUAL_F.  DUAL_U.
  'default_lp':          1  70'808'568    161'894  721'506        3  426'030
      'max_lp':          1  32'289'835    185'159  107'085  221'392   88'820

Lp dimension        Final dimension of first component
  'default_lp':    292 rows, 343 columns, 2492 entries
      'max_lp':  1403 rows, 482 columns, 11780 entries

Lp debug         CutPropag  CutEqPropag   Adjust  Overflow        Bad  BadScaling
  'default_lp':          0          212  426'027         0  4'872'344           0
      'max_lp':          0           53   88'811         0  5'596'822           0

Lp pool          Constraints  Updates  Simplif  Merged  Shortened  Split  Strengthened        Cuts/Call
  'default_lp':       10'683   32'786    8'184       0      8'213    451             2  161'894/305'440
      'max_lp':       12'275   52'615    6'411       2      6'559    698         3'711  185'159/395'671

Lp Cut            default_lp   max_lp
          CG_FF:       2'441      144
           CG_K:       1'394       15
          CG_KL:       1'333        6
           CG_R:       2'578       73
          CG_RB:         120        8
         CG_RBP:          18        2
         Clique:           -      314
             IB:         143       17
       MIR_1_FF:       1'249    1'432
        MIR_1_K:         228       38
       MIR_1_KL:         927       60
        MIR_1_R:       1'096      920
       MIR_1_RB:           2        1
      MIR_1_RBP:           6        1
      MIR_1_RLT:           -   18'268
       MIR_2_FF:       1'277    2'097
        MIR_2_K:         229      448
       MIR_2_KL:         691      153
        MIR_2_R:       1'644    2'198
       MIR_2_RB:          60        9
      MIR_2_RBP:          36        5
       MIR_3_FF:         701      601
        MIR_3_K:         116       91
       MIR_3_KL:         250       35
        MIR_3_R:         880      792
       MIR_3_RB:          55       13
      MIR_3_RBP:          11        9
       MIR_4_FF:         277      204
        MIR_4_K:          45       37
       MIR_4_KL:         111       12
        MIR_4_R:         628      580
       MIR_4_RB:          41        9
      MIR_4_RBP:          10       12
       MIR_5_FF:          86       74
        MIR_5_K:          28       15
       MIR_5_KL:          17        2
        MIR_5_R:         348      517
       MIR_5_RB:          35       11
      MIR_5_RBP:          12       15
       MIR_6_FF:          47       27
        MIR_6_K:          20        3
       MIR_6_KL:           8        3
        MIR_6_R:         228      483
       MIR_6_RB:          29        6
      MIR_6_RBP:           9       16
   ZERO_HALF_FF:         979      743
    ZERO_HALF_K:         259       35
   ZERO_HALF_KL:         256        8
    ZERO_HALF_R:     140'827  154'567
   ZERO_HALF_RB:          78       20
  ZERO_HALF_RBP:          31       10

LNS stats       Improv/Calls  Closed  Difficulty  TimeLimit
  'rins/rens':   25566/25566     50%    8.25e-01       0.10

LS stats                                    Batches  Restarts/Perturbs    LinMoves    GenMoves  CompoundMoves  Bactracks  WeightUpdates  ScoreComputed
                             'fj_restart':      876                244  24'355'180           0              0          0     22'785'555     30'574'250
                    'fj_restart_compound':      814                257           0   8'914'196        602'410  4'155'408         19'582    145'689'755
                'fj_restart_compound_obj':      907                269           0   9'914'760        610'606  4'651'574         23'834    162'611'778
            'fj_restart_compound_perturb':      819                256           0   9'006'040        602'994  4'201'014         19'514    146'661'360
        'fj_restart_compound_perturb_obj':    1'134                262           0  12'648'479        693'020  5'977'252         29'733    203'406'364
                       'fj_restart_decay':    1'834                237  56'480'190           0              0          0      2'477'977     27'490'894
              'fj_restart_decay_compound':    1'452                263           0  18'043'156      2'930'181  7'555'840         19'047    263'920'419
          'fj_restart_decay_compound_obj':    1'801                221           0  22'904'345      3'700'042  9'601'636         23'483    328'013'690
      'fj_restart_decay_compound_perturb':      968                254           0  11'665'117      1'898'480  4'882'682         12'799    175'471'609
  'fj_restart_decay_compound_perturb_obj':      866                245           0  10'346'450      1'685'932  4'329'696         11'460    156'744'124
                   'fj_restart_decay_obj':    1'872                244  57'617'994           0              0          0      2'527'463     28'077'359
               'fj_restart_decay_perturb':    1'417                274  43'584'255           0              0          0      1'913'875     21'249'903
           'fj_restart_decay_perturb_obj':    1'375                261  42'314'534           0              0          0      1'857'397     20'618'882
                         'fj_restart_obj':    2'176                246  57'974'789           0              0          0     56'902'111     85'454'838
                     'fj_restart_perturb':    1'028                234  28'341'791           0              0          0     27'578'927     36'142'762
                 'fj_restart_perturb_obj':      861                245  24'761'018           0              0          0     22'215'834     28'678'182

Solution repositories    Added  Queried  Synchro
    'alternative_path':      0        0        0
      'best_solutions':      0        0        0
   'fj solution hints':  4'004        0    4'004
        'lp solutions':  3'015   25'585    3'010
                'pump':      0        0

Improving bounds shared    Num  Sym
            'default_lp':    6    0
                 'no_lp':  125    0

Clauses shared    #Exported  #Imported  #BinaryRead  #BinaryTotal
   'default_lp':      5'773    113'269          591         1'180
       'max_lp':      5'606    113'578          592         1'180
        'no_lp':    115'135     12'845        1'180         1'180

LRAT_status: NA
CpSolverResponse summary:
status: INFEASIBLE
objective: NA
best_bound: NA
integers: 355
booleans: 478
conflicts: 40195049
branches: 51486130
propagations: 3320882313
integer_propagations: 867266209
restarts: 125953
lp_iterations: 0
walltime: 5471.28
usertime: 5471.28
deterministic_time: 27533.4
gap_integral: 0

{
  "board_size": 22,
  "parity_proved": 0,
  "target": 34,
  "child_id": 982,
  "child_count": 2640,
  "partition": "unknown_pair_x_diag_plus_twos_x_diag_minus_twos",
  "build_seconds": 0.07743597030639648,
  "workers": 4,
  "requested_seed": 2026073182,
  "effective_seed": 2026073182,
  "main_diagonal_pair": [
    2,
    14
  ],
  "pair_index": 51,
  "diag_plus_twos": 16,
  "diag_minus_twos": 16,
  "pair_excess": 10,
  "residual_certificate_slack": 102,
  "analytic_minimum_line_defect": 24,
  "analytic_defect_details": {
    "row_costs": {
      "12": 6,
      "13": 3,
      "14": 0,
      "15": 0,
      "16": 0,
      "17": 0
    },
    "column_costs": {
      "12": 6,
      "13": 3,
      "14": 0,
      "15": 0,
      "16": 0,
      "17": 0
    },
    "plus_cost": 24,
    "minus_cost": 0,
    "row_column_minimum": 0
  },
  "maximal_line_constraints": 2455,
  "analytic_infeasible": false,
  "allowed_points": 242,
  "status": "INFEASIBLE",
  "proof_method": "cp_sat_all_lines_with_certificate_profile_cuts",
  "elapsed_seconds": 5471.284866571426,
  "branches": 51486130,
  "conflicts": 40195049
}
